p cnf 227 713
-9 -47 0
-20 -47 0
47 9 20  0
-47 29 0
-9 -48 0
28 -48 0
48 9 -28  0
-48 29 0
-20 -49 0
-28 -49 0
49 20 28  0
-49 29 0
-29 47 48 49  0
-10 -50 0
-21 -50 0
50 10 21  0
-50 30 0
-10 -51 0
28 -51 0
51 10 -28  0
-51 30 0
-21 -52 0
-28 -52 0
52 21 28  0
-52 30 0
-30 50 51 52  0
-11 -53 0
-22 -53 0
53 11 22  0
-53 31 0
-11 -54 0
28 -54 0
54 11 -28  0
-54 31 0
-22 -55 0
-28 -55 0
55 22 28  0
-55 31 0
-31 53 54 55  0
-12 -56 0
-23 -56 0
56 12 23  0
-56 32 0
-12 -57 0
28 -57 0
57 12 -28  0
-57 32 0
-23 -58 0
-28 -58 0
58 23 28  0
-58 32 0
-32 56 57 58  0
-13 -59 0
-24 -59 0
59 13 24  0
-59 33 0
-13 -60 0
28 -60 0
60 13 -28  0
-60 33 0
-24 -61 0
-28 -61 0
61 24 28  0
-61 33 0
-33 59 60 61  0
-14 -62 0
-25 -62 0
62 14 25  0
-62 34 0
-14 -63 0
28 -63 0
63 14 -28  0
-63 34 0
-25 -64 0
-28 -64 0
64 25 28  0
-64 34 0
-34 62 63 64  0
-15 -65 0
-26 -65 0
65 15 26  0
-65 35 0
-15 -66 0
28 -66 0
66 15 -28  0
-66 35 0
-26 -67 0
-28 -67 0
67 26 28  0
-67 35 0
-35 65 66 67  0
-16 -68 0
-27 -68 0
68 16 27  0
-68 36 0
-16 -69 0
28 -69 0
69 16 -28  0
-69 36 0
-27 -70 0
-28 -70 0
70 27 28  0
-70 36 0
-36 68 69 70  0
9 -71 0
-17 -71 0
-19 -71 0
71 -9 17 19  0
-71 38 0
17 -72 0
18 -72 0
20 -72 0
72 -17 -18 -20  0
-72 38 0
17 -73 0
-18 -73 0
-20 -73 0
73 -17 18 20  0
-73 38 0
9 -74 0
-17 -74 0
1 -74 0
74 -9 17 -1  0
-74 38 0
-17 -75 0
19 -75 0
1 -75 0
75 17 -19 -1  0
-75 38 0
9 -76 0
18 -76 0
-19 -76 0
20 -76 0
76 -9 -18 19 -20  0
-76 38 0
9 -77 0
-18 -77 0
-19 -77 0
-20 -77 0
77 -9 18 19 20  0
-77 38 0
9 -78 0
18 -78 0
20 -78 0
1 -78 0
78 -9 -18 -20 -1  0
-78 38 0
18 -79 0
19 -79 0
20 -79 0
1 -79 0
79 -18 -19 -20 -1  0
-79 38 0
9 -80 0
-18 -80 0
-20 -80 0
1 -80 0
80 -9 18 20 -1  0
-80 38 0
-18 -81 0
19 -81 0
-20 -81 0
1 -81 0
81 18 -19 20 -1  0
-81 38 0
-38 71 72 73 74 75 76 77 78 79 80 81  0
21 -84 0
-83 -84 0
84 -21 83  0
-84 39 0
-17 -85 0
-83 -85 0
85 17 83  0
-85 39 0
-82 -86 0
-83 -86 0
86 82 83  0
-86 39 0
-39 84 85 86  0
-17 -90 0
-89 -90 0
90 17 89  0
-90 40 0
20 -91 0
22 -91 0
-89 -91 0
91 -20 -22 89  0
-91 40 0
18 -92 0
22 -92 0
-89 -92 0
92 -18 -22 89  0
-92 40 0
-87 -93 0
22 -93 0
-89 -93 0
93 87 -22 89  0
-93 40 0
20 -94 0
-88 -94 0
-89 -94 0
94 -20 88 89  0
-94 40 0
18 -95 0
-88 -95 0
-89 -95 0
95 -18 88 89  0
-95 40 0
-87 -96 0
-88 -96 0
-89 -96 0
96 87 88 89  0
-96 40 0
-40 90 91 92 93 94 95 96  0
-17 -100 0
-99 -100 0
100 17 99  0
-100 41 0
20 -101 0
23 -101 0
-99 -101 0
101 -20 -23 99  0
-101 41 0
18 -102 0
23 -102 0
-99 -102 0
102 -18 -23 99  0
-102 41 0
-97 -103 0
23 -103 0
-99 -103 0
103 97 -23 99  0
-103 41 0
20 -104 0
-98 -104 0
-99 -104 0
104 -20 98 99  0
-104 41 0
18 -105 0
-98 -105 0
-99 -105 0
105 -18 98 99  0
-105 41 0
-97 -106 0
-98 -106 0
-99 -106 0
106 97 98 99  0
-106 41 0
-41 100 101 102 103 104 105 106  0
-17 -110 0
-109 -110 0
110 17 109  0
-110 42 0
20 -111 0
24 -111 0
-109 -111 0
111 -20 -24 109  0
-111 42 0
18 -112 0
24 -112 0
-109 -112 0
112 -18 -24 109  0
-112 42 0
-107 -113 0
24 -113 0
-109 -113 0
113 107 -24 109  0
-113 42 0
20 -114 0
-108 -114 0
-109 -114 0
114 -20 108 109  0
-114 42 0
18 -115 0
-108 -115 0
-109 -115 0
115 -18 108 109  0
-115 42 0
-107 -116 0
-108 -116 0
-109 -116 0
116 107 108 109  0
-116 42 0
-42 110 111 112 113 114 115 116  0
-17 -121 0
-120 -121 0
121 17 120  0
-121 43 0
18 -122 0
25 -122 0
-120 -122 0
122 -18 -25 120  0
-122 43 0
-117 -123 0
25 -123 0
-120 -123 0
123 117 -25 120  0
-123 43 0
-118 -124 0
25 -124 0
-120 -124 0
124 118 -25 120  0
-124 43 0
18 -125 0
-119 -125 0
-120 -125 0
125 -18 119 120  0
-125 43 0
-117 -126 0
-119 -126 0
-120 -126 0
126 117 119 120  0
-126 43 0
-118 -127 0
-119 -127 0
-120 -127 0
127 118 119 120  0
-127 43 0
-43 121 122 123 124 125 126 127  0
-17 -132 0
-131 -132 0
132 17 131  0
-132 44 0
18 -133 0
26 -133 0
-131 -133 0
133 -18 -26 131  0
-133 44 0
-128 -134 0
26 -134 0
-131 -134 0
134 128 -26 131  0
-134 44 0
-129 -135 0
26 -135 0
-131 -135 0
135 129 -26 131  0
-135 44 0
18 -136 0
-130 -136 0
-131 -136 0
136 -18 130 131  0
-136 44 0
-128 -137 0
-130 -137 0
-131 -137 0
137 128 130 131  0
-137 44 0
-129 -138 0
-130 -138 0
-131 -138 0
138 129 130 131  0
-138 44 0
-44 132 133 134 135 136 137 138  0
-17 -143 0
-142 -143 0
143 17 142  0
-143 45 0
18 -144 0
27 -144 0
-142 -144 0
144 -18 -27 142  0
-144 45 0
-139 -145 0
27 -145 0
-142 -145 0
145 139 -27 142  0
-145 45 0
-140 -146 0
27 -146 0
-142 -146 0
146 140 -27 142  0
-146 45 0
18 -147 0
-141 -147 0
-142 -147 0
147 -18 141 142  0
-147 45 0
-139 -148 0
-141 -148 0
-142 -148 0
148 139 141 142  0
-148 45 0
-140 -149 0
-141 -149 0
-142 -149 0
149 140 141 142  0
-149 45 0
-45 143 144 145 146 147 148 149  0
17 -152 0
18 -152 0
28 -152 0
152 -17 -18 -28  0
-152 46 0
17 -153 0
-18 -153 0
-150 -153 0
-151 -153 0
